
;this file is automatically generated: Mon Feb 10 17:01:40 CST 2020

;declarations generated

(declare-fun type_39094f1b_2286_4f7a_8ded_af0cd4a4f3cf_Class46 ( Int) Bool)
(declare-fun type_39094f1b_2286_4f7a_8ded_af0cd4a4f3cf_Class48 ( Int) Bool)
(declare-fun oclExcludes ( Int Int) Bool)
(declare-fun Cardinality ( Int) Int)
(declare-fun obj_489ea7ce_588c_4cf5_9bf6_5f7951fa84df ( Int) Int)
(declare-fun type_39094f1b_2286_4f7a_8ded_af0cd4a4f3cf_Class19 ( Int) Bool)
(declare-fun type_39094f1b_2286_4f7a_8ded_af0cd4a4f3cf_Class5 ( Int) Bool)
(declare-fun type_39094f1b_2286_4f7a_8ded_af0cd4a4f3cf_Class2 ( Int) Bool)
(declare-fun oclSelect ( Int Bool) Int)
(declare-fun Enum0 ( Int) Int)
(declare-fun Enum1 ( Int) Int)
(declare-fun Enum2 ( Int) Int)
(declare-fun container_ ( Int) Int)
(declare-fun oclIncludes ( Int Int) Bool)
(declare-fun ObjAt ( Int Int) Int)

;formula(s) generated
(assert (forall ((p Int)) (=> ( type_39094f1b_2286_4f7a_8ded_af0cd4a4f3cf_Class48 p )  (and (>= ( Enum2 ( obj_489ea7ce_588c_4cf5_9bf6_5f7951fa84df p )  )  0) (<= ( Enum2 ( obj_489ea7ce_588c_4cf5_9bf6_5f7951fa84df p )  )  6)))))
(assert (! (forall ((v Int)) (=> (and (and (and (and ( type_39094f1b_2286_4f7a_8ded_af0cd4a4f3cf_Class48 v )  ( type_39094f1b_2286_4f7a_8ded_af0cd4a4f3cf_Class46 v ) ) ( type_39094f1b_2286_4f7a_8ded_af0cd4a4f3cf_Class5 v ) ) ( type_39094f1b_2286_4f7a_8ded_af0cd4a4f3cf_Class19 v ) ) ( type_39094f1b_2286_4f7a_8ded_af0cd4a4f3cf_Class2 v ) ) (not (= ( Enum2 ( obj_489ea7ce_588c_4cf5_9bf6_5f7951fa84df v )  )  1) ))):named l0))
(assert (exists ((o Int)) (and (and (and (and ( type_39094f1b_2286_4f7a_8ded_af0cd4a4f3cf_Class48 ( obj_489ea7ce_588c_4cf5_9bf6_5f7951fa84df o )  )  ( type_39094f1b_2286_4f7a_8ded_af0cd4a4f3cf_Class46 ( obj_489ea7ce_588c_4cf5_9bf6_5f7951fa84df o )  ) ) ( type_39094f1b_2286_4f7a_8ded_af0cd4a4f3cf_Class5 ( obj_489ea7ce_588c_4cf5_9bf6_5f7951fa84df o )  ) ) ( type_39094f1b_2286_4f7a_8ded_af0cd4a4f3cf_Class19 ( obj_489ea7ce_588c_4cf5_9bf6_5f7951fa84df o )  ) ) ( type_39094f1b_2286_4f7a_8ded_af0cd4a4f3cf_Class2 ( obj_489ea7ce_588c_4cf5_9bf6_5f7951fa84df o )  ) )))

 ;end of formula 